
******************************************************************************
This program contains Ipopt, a library for large-scale nonlinear optimization.
 Ipopt is released as open source code under the Eclipse Public License (EPL).
         For more information visit http://projects.coin-or.org/Ipopt

This version of Ipopt was compiled from source code available at
    https://github.com/IDAES/Ipopt as part of the Institute for the Design of
    Advanced Energy Systems Process Systems Engineering Framework (IDAES PSE
    Framework) Copyright (c) 2018-2019. See https://github.com/IDAES/idaes-pse.

This version of Ipopt was compiled using HSL, a collection of Fortran codes
    for large-scale scientific computation.  All technical papers, sales and
    publicity material resulting from use of the HSL codes within IPOPT must
    contain the following acknowledgement:
        HSL, a collection of Fortran codes for large-scale scientific
        computation. See http://www.hsl.rl.ac.uk.
******************************************************************************

This is Ipopt version 3.13.2, running with linear solver ma27.

Number of nonzeros in equality constraint Jacobian...:      928
Number of nonzeros in inequality constraint Jacobian.:        0
Number of nonzeros in Lagrangian Hessian.............:      806

Total number of variables............................:      403
                     variables with only lower bounds:      124
                variables with lower and upper bounds:      217
                     variables with only upper bounds:        0
Total number of equality constraints.................:      402
Total number of inequality constraints...............:        0
        inequality constraints with only lower bounds:        0
   inequality constraints with lower and upper bounds:        0
        inequality constraints with only upper bounds:        0

iter    objective    inf_pr   inf_du lg(mu)  ||d||  lg(rg) alpha_du alpha_pr  ls
   0  0.0000000e+00 1.26e+00 1.42e-14  -1.0 0.00e+00    -  0.00e+00 0.00e+00   0
   1  3.3810403e-02 9.73e-01 6.04e+03  -1.0 7.15e+04    -  5.28e-01 2.41e-01h  2
   2  1.1487290e-01 7.21e-01 8.46e+04  -1.0 4.82e+04    -  5.86e-01 2.76e-01h  1
   3  1.2137314e-01 7.08e-01 8.69e+04  -1.0 1.56e+05    -  5.91e-01 1.89e-02h  1
   4  9.1753033e+00 1.78e-01 7.67e+04  -1.0 1.71e+05    -  6.06e-01 9.90e-01h  1
   5  1.1251681e+01 1.57e-02 6.67e+03  -1.0 1.88e+04    -  9.38e-01 9.90e-01h  1
   6  1.1296213e+01 2.79e-04 1.42e+02  -1.0 4.49e+02    -  9.90e-01 9.90e-01h  1
   7  1.1299456e+01 2.70e-04 1.71e+07  -1.0 9.26e+02    -  9.56e-01 3.09e-02f  6
   8  1.1774108e+01 6.36e-04 1.67e+07  -1.0 6.71e+04    -  9.61e-02 6.19e-02f  5
   9  1.1789011e+01 1.50e-05 1.69e+05  -1.0 1.30e+02    -  9.90e-01 9.90e-01h  1
iter    objective    inf_pr   inf_du lg(mu)  ||d||  lg(rg) alpha_du alpha_pr  ls
  10  1.1799685e+01 4.19e-07 1.20e+07  -1.0 9.32e+01    -  9.96e-01 9.90e-01h  1
  11  1.1799619e+01 4.18e-09 2.04e+09  -1.0 5.73e-01    -  1.00e+00 9.90e-01h  1
  12  1.1799618e+01 4.16e-11 2.04e+11  -1.0 5.79e-03    -  1.00e+00 9.90e-01h  1
In iteration 12, 31 Slacks too small, adjusting variable bounds
  13  1.1799618e+01 3.23e-12 2.04e+13  -1.0 5.79e-05    -  1.00e+00 9.90e-01h  1
  14  1.1799618e+01 1.51e-12 1.01e+15  -1.0 5.63e-07    -  1.00e+00 5.00e-01h  2
  15  1.1799618e+01 1.51e-12 1.01e+15  -1.0 2.79e-07    -  1.00e+00 7.63e-06h 18
  16  1.1799618e+01 3.35e-12 5.86e-02  -1.0 2.84e-07    -  1.00e+00 1.00e+00s 22
Restoration phase is called at point that is almost feasible,
  with constraint violation 2.159578e-11. Abort.

Number of Iterations....: 16

                                   (scaled)                 (unscaled)
Objective...............:   1.1799618479383128e+01    1.1799618479383128e+01
Dual infeasibility......:   5.8593750000000000e-02    5.8593750000000000e-02
Constraint violation....:   3.3484326422694721e-12    3.3484326422694721e-12
Complementarity.........:   1.0000000000255076e-01    1.0000000000255076e-01
Overall NLP error.......:   8.7380805545287902e-12    1.0000000000255076e-01


Number of objective function evaluations             = 76
Number of objective gradient evaluations             = 18
Number of equality constraint evaluations            = 76
Number of inequality constraint evaluations          = 0
Number of equality constraint Jacobian evaluations   = 18
Number of inequality constraint Jacobian evaluations = 0
Number of Lagrangian Hessian evaluations             = 17
Total CPU secs in IPOPT (w/o function evaluations)   =      0.044
Total CPU secs in NLP function evaluations           =      0.734

EXIT: Restoration Failed!
